&BANDS
    prefix      = '{{ wf.prefix }}',
    outdir      = '{{ unit.outdir }}',
    filband     = 'bands/{{ wf.functional | upper }}_{{ wf.prefix }}.band',
    lsym        = .true.,
/
