&INPUT
    fildyn = '{{ wf.prefix }}.dyn',
    flfrc  = '{{ wf.prefix }}.fc',
    zasr   = '{{ p.zasr | default("crystal") }}',
/
